StudentsNr = 10;
InstructorsNr = 34;
DaysNr = 2;
SlotsPerDay = 15;
AvailabilitySlotsLenght = 3;
RoomNr = 1;
ProgrammNr = 1;
DegreeNr = 3;
RolesNr = 0;
CoursesNr = 3;
InstructorsProgramm = [{1}, {1}, {1}, {1}, {1}, {1}, {1}, {1}, {1}, {1}, {1}, {1}, {1}, {1}, {1}, {1}, {1}, {1}, {1}, {1}, {1}, {1}, {1}, {1}, {1}, {1}, {1}, {1}, {1}, {1}, {1}, {1}, {1}, {1}];
InstructorRolesPerProgramm = array2d(1..ProgrammNr,{},[]);
InstructorsAvailability = [|1, 1, 1, 1, 1, 0, 0, 0, 0, 1, |0, 1, 1, 1, 1, 1, 1, 1, 0, 0, |1, 0, 1, 1, 1, 1, 1, 0, 1, 1, |0, 1, 1, 1, 1, 0, 0, 0, 1, 1, |0, 0, 0, 1, 1, 1, 1, 0, 0, 1, |0, 1, 1, 1, 1, 1, 1, 1, 1, 1, |0, 1, 0, 1, 1, 1, 1, 1, 1, 1, |0, 1, 0, 0, 0, 1, 0, 1, 1, 1, |0, 1, 0, 0, 0, 1, 1, 0, 1, 1, |1, 1, 1, 1, 1, 1, 1, 0, 1, 1, |0, 1, 1, 1, 0, 1, 1, 1, 1, 1, |0, 0, 1, 1, 1, 1, 1, 1, 1, 1, |1, 1, 1, 1, 1, 1, 1, 0, 1, 1, |1, 1, 1, 0, 0, 1, 0, 1, 1, 1, |1, 1, 0, 1, 0, 1, 0, 1, 1, 1, |1, 1, 1, 1, 1, 1, 0, 1, 1, 1, |1, 1, 1, 0, 0, 1, 1, 1, 1, 1, |0, 0, 1, 1, 0, 1, 1, 1, 1, 1, |0, 1, 1, 1, 1, 1, 1, 1, 1, 1, |0, 1, 1, 1, 1, 1, 1, 1, 1, 1, |1, 1, 1, 1, 1, 1, 1, 1, 0, 1, |1, 1, 0, 0, 0, 1, 0, 1, 1, 1, |0, 1, 1, 1, 1, 1, 1, 1, 1, 1, |0, 1, 1, 1, 1, 1, 1, 1, 1, 1, |1, 1, 0, 1, 1, 1, 1, 0, 1, 0, |0, 1, 1, 1, 1, 0, 1, 1, 1, 1, |0, 0, 0, 1, 1, 0, 0, 0, 1, 1, |0, 0, 1, 1, 1, 0, 1, 1, 1, 1, |1, 0, 1, 1, 1, 1, 1, 0, 1, 1, |1, 1, 1, 1, 0, 1, 1, 0, 1, 0, |0, 1, 1, 0, 1, 1, 0, 1, 1, 1, |0, 0, 0, 0, 1, 0, 1, 1, 1, 1, |0, 0, 0, 1, 1, 0, 1, 1, 0, 0, |1, 0, 1, 1, 0, 1, 1, 1, 1, 1|];
StudentsProgramm = [1, 1, 1, 1, 1, 1, 1, 1, 1, 1];
StudentsDegree = [2, 3, 1, 1, 2, 2, 2, 3, 3, 2];
StudentsSupervisorId = [22, 29, 11, 25, 29, 32, 19, 32, 17, 25];
StudentsCourseIds = [{3}, {3}, {1, 2, 3}, {1, 2, 3}, {3}, {3}, {1}, {2}, {1}, {3}];
StudentsAvailability = [|0, 0, 0, 1, 1, 1, 1, 1, 1, 1, |1, 1, 1, 1, 1, 1, 1, 1, 1, 1, |1, 1, 1, 1, 1, 1, 1, 1, 1, 1, |0, 0, 0, 0, 1, 1, 1, 1, 1, 1, |1, 1, 1, 1, 1, 1, 1, 0, 1, 1, |0, 1, 1, 1, 1, 1, 1, 1, 1, 1, |1, 1, 1, 1, 1, 1, 1, 0, 0, 1, |1, 1, 1, 1, 1, 1, 1, 1, 1, 0, |0, 1, 1, 1, 1, 0, 1, 1, 1, 1, |1, 1, 1, 1, 1, 1, 1, 1, 1, 1|];
TheoryticalMinCard = [1, 1, 3, 4, 1, 1, 1, 2, 2, 2];
CoursesInstructorIds = [{1, 2, 3, 4, 5, 8, 9, 10, 14, 15, 18, 19, 21, 22, 23, 26, 27, 28, 29, 30, 33, 34}, {10, 18}, {1, 2, 3, 6, 9, 10, 11, 12, 14, 16, 17, 18, 19, 20, 22, 26, 27, 29, 32, 34}];
RolesDemands = [];
RolesContinuity = [];
ExamLen = [2, 2, 2, 2, 2, 2, 2, 2, 2, 2];
LunchTsMinLen = 0;
LunchStarts = [5..9, 20..26];
SupervisorAvailable = 0;
OptimalLunchLenght = [1, 1];
OptimalStartTs = [0, 0];
OptimalFinishTs = [1, 15];
MinimizeRooms = 400;
RolesSoftContinuity = array2d(1..2,{},[]);
SameDegreeInRoom = 10;
Mergeability = 2;
